param set_len = 18;
param target_sum = 4974217728;
param values := [1] 525768853 [2] 1022908611 [3] 52704585 [4] 469944936 [5] 1068415005 [6] 748422199 [7] 1034937416 [8] 484221117 [9] 171601208 [10] 880844148 [11] 64540666 [12] 628246963 [13] 631412671 [14] 331633602 [15] 681180769 [16] 447725915 [17] 665865227 [18] 464609565 ;
